EA190   4.691  5.500  4.203 73.33 102.65 70.04 Sym.group:   12
1.0
    4.689964     0.031946    -0.106838
    1.849360     5.170351     0.307736
   -0.841288     1.352136     3.889688
  Ba  Si   H
   2   2  16
Direct
    0.932951     0.452547     0.714607 
    0.310203     0.701340     0.089613 
    0.830330     0.075321     0.316892 
    0.413913     0.078452     0.488391 
    0.800531     0.076527     0.950203 
    0.081796     0.778034     0.469303 
    0.460713     0.780433     0.631717 
    0.623502     0.257071     0.522181 
    0.161482     0.077146     0.189854 
    0.081856     0.076687     0.615284 
    0.161865     0.375566     0.335227 
    0.391369     0.535833     0.670848 
    0.438474     0.255960     0.103748 
    0.473675     0.374126     0.768074 
    0.441924     0.077331     0.854620 
    0.783011     0.373551     0.173031 
    0.805097     0.897347     0.700972 
    0.770147     0.780125     0.044187 
    0.619242     0.897465     0.282107 
    0.851852     0.617936     0.132410 
