Image_ini
1.0000000000000000
4.2438780865459229       -0.0000031529447317       -0.0000022294686648
2.1219360680475794       3.6753079513767637       -0.0000022291950684
2.1219360680475798       1.2251004545935367       3.4651143440688124
Ba       Si       H
1       1       8
Direct
0.0000000000000000       0.0000000000000000       0.0000000000000000
0.5000000000000000       0.5000000000000000       0.5000000000000000
0.3486244278444417       0.3486244278444630       0.3486244278444985
0.6513756021555537       0.6513756021555324       0.6513756021554968
0.3486244281594040       0.3486244281593684       0.9541266868367160
0.6513756018405914       0.6513756018406269       0.0458732841632781
0.3486244281593827       0.9541266868367657       0.3486244281593684
0.6513756018406127       0.0458732841632283       0.6513756018406269
0.9541266868367515       0.3486244281593827       0.3486244281594040
0.0458732841632425       0.6513756018406127       0.6513756018405914
